Route #1: 1 1 10 13 1 
Route #2: 1 4 11 1 
Route #3: 1 6 1 
Route #4: 1 2 1 
Route #5: 1 15 12 9 1 
Route #6: 1 7 5 1 
Route #7: 1 3 14 1 
Route #8: 1 8 1 

Cost 397.015
Time 0.0008


 * Other infos *

 Iterations: 16 Time: 0.0008 sec - 0.0000 min - 0.0000 horas
0.0000 h 0.0000 min
Problem dimension: 16
